rcpsp/heur_output_bi_constraints/Log=2/heurj60.txt
encoding rcpsp/j60.sm/j6013_7.sm nv: 1017920 nc: 2078851 enctime: 14.17
encoding rcpsp/j60.sm/j6013_7.sm nv: 327643 nc: 667700 enctime: 3.69
c File: j6013_7.smnaivebi2.wcnf
c timeout
c final solution cost: 90
c CPU time: 61.854212
s UNKNOWN

c File: j6013_7.smbi2.wcnf
c timeout
c final solution cost: 91
c CPU time: 60.508775
s UNKNOWN


rcpsp/heur_output_bi_constraints/Log=2/heurj60.txt
encoding rcpsp/j60.sm/j6013_8.sm nv: 912870 nc: 1887862 enctime: 13.10
encoding rcpsp/j60.sm/j6013_8.sm nv: 428652 nc: 885205 enctime: 5.18
c File: j6013_8.smnaivebi2.wcnf
c timeout
c final solution cost: 123
c CPU time: 61.776052
s UNKNOWN

c File: j6013_8.smbi2.wcnf
c timeout
c final solution cost: 127
c CPU time: 60.707535
s UNKNOWN


rcpsp/heur_output_bi_constraints/Log=2/heurj60.txt
encoding rcpsp/j60.sm/j6013_9.sm nv: 1068200 nc: 2194338 enctime: 14.90
encoding rcpsp/j60.sm/j6013_9.sm nv: 402864 nc: 825952 enctime: 4.94
c File: j6013_9.smnaivebi2.wcnf
c timeout
c final solution cost: 100
c CPU time: 62.040598
s UNKNOWN

c File: j6013_9.smbi2.wcnf
c timeout
c final solution cost: 102
c CPU time: 60.636511
s UNKNOWN


rcpsp/heur_output_bi_constraints/Log=2/heurj60.txt
encoding rcpsp/j60.sm/j601_3.sm nv: 117607 nc: 295916 enctime: 2.99
encoding rcpsp/j60.sm/j601_3.sm nv: 23744 nc: 58096 enctime: 0.36
c File: j601_3.smnaivebi2.wcnf
c optimal
c final solution cost: 56
c CPU time: 1.205836
s OPTIMUM FOUND

c File: j601_3.smbi2.wcnf
c optimal
c final solution cost: 56
c CPU time: 0.165330
s OPTIMUM FOUND


rcpsp/heur_output_bi_constraints/Log=2/heurj60.txt
encoding rcpsp/j60.sm/j6014_10.sm nv: 1792296 nc: 3637666 enctime: 24.59
encoding rcpsp/j60.sm/j6014_10.sm nv: 433620 nc: 878014 enctime: 4.91
c File: j6014_10.smnaivebi2.wcnf
c timeout
c final solution cost: 67
c CPU time: 63.006042
s UNKNOWN

c File: j6014_10.smbi2.wcnf
c timeout
c final solution cost: 68
c CPU time: 60.632279
s UNKNOWN


rcpsp/heur_output_bi_constraints/Log=2/heurj60.txt
encoding rcpsp/j60.sm/j6014_1.sm nv: 1890108 nc: 3806088 enctime: 24.77
encoding rcpsp/j60.sm/j6014_1.sm nv: 402996 nc: 809594 enctime: 5.32
c File: j6014_1.smnaivebi2.wcnf
c timeout
c final solution cost: 176
c CPU time: 63.020691
s UNKNOWN

c File: j6014_1.smbi2.wcnf
c optimal
c final solution cost: 54
c CPU time: 7.147732
s OPTIMUM FOUND


rcpsp/heur_output_bi_constraints/Log=2/heurj60.txt
encoding rcpsp/j60.sm/j6014_2.sm nv: 1766688 nc: 3562909 enctime: 24.02
encoding rcpsp/j60.sm/j6014_2.sm nv: 352286 nc: 708550 enctime: 4.15
c File: j6014_2.smnaivebi2.wcnf
c timeout
c final solution cost: 159
c CPU time: 62.899084
s UNKNOWN

c File: j6014_2.smbi2.wcnf
c timeout
c final solution cost: 56
c CPU time: 60.507875
s UNKNOWN


rcpsp/heur_output_bi_constraints/Log=2/heurj60.txt
encoding rcpsp/j60.sm/j6014_3.sm nv: 1549664 nc: 3122840 enctime: 20.78
encoding rcpsp/j60.sm/j6014_3.sm nv: 348184 nc: 700035 enctime: 3.99
c File: j6014_3.smnaivebi2.wcnf
c timeout
c final solution cost: 58
c CPU time: 62.585207
s UNKNOWN

c File: j6014_3.smbi2.wcnf
c timeout
c final solution cost: 58
c CPU time: 60.503483
s UNKNOWN


rcpsp/heur_output_bi_constraints/Log=2/heurj60.txt
encoding rcpsp/j60.sm/j6014_4.sm nv: 1708927 nc: 3454945 enctime: 23.45
encoding rcpsp/j60.sm/j6014_4.sm nv: 370183 nc: 746569 enctime: 4.30
c File: j6014_4.smnaivebi2.wcnf
c timeout
c final solution cost: 59
c CPU time: 62.797761
s UNKNOWN

c File: j6014_4.smbi2.wcnf
c timeout
c final solution cost: 61
c CPU time: 60.541673
s UNKNOWN


rcpsp/heur_output_bi_constraints/Log=2/heurj60.txt
encoding rcpsp/j60.sm/j6014_5.sm nv: 1606629 nc: 3232482 enctime: 22.02
encoding rcpsp/j60.sm/j6014_5.sm nv: 359310 nc: 721320 enctime: 4.25
c File: j6014_5.smnaivebi2.wcnf
c timeout
c final solution cost: 53
c CPU time: 62.630655
s UNKNOWN

c File: j6014_5.smbi2.wcnf
c timeout
c final solution cost: 53
c CPU time: 60.529779
s UNKNOWN


rcpsp/heur_output_bi_constraints/Log=2/heurj60.txt
encoding rcpsp/j60.sm/j6014_6.sm nv: 1610280 nc: 3243946 enctime: 21.47
encoding rcpsp/j60.sm/j6014_6.sm nv: 347616 nc: 698611 enctime: 4.63
c File: j6014_6.smnaivebi2.wcnf
c timeout
c final solution cost: 56
c CPU time: 62.617346
s UNKNOWN

c File: j6014_6.smbi2.wcnf
c timeout
c final solution cost: 55
c CPU time: 60.505407
s UNKNOWN


rcpsp/heur_output_bi_constraints/Log=2/heurj60.txt
encoding rcpsp/j60.sm/j6014_7.sm nv: 1460552 nc: 2949958 enctime: 19.94
encoding rcpsp/j60.sm/j6014_7.sm nv: 314296 nc: 633142 enctime: 3.69
c File: j6014_7.smnaivebi2.wcnf
c timeout
c final solution cost: 58
c CPU time: 62.448429
s UNKNOWN

c File: j6014_7.smbi2.wcnf
c timeout
c final solution cost: 59
c CPU time: 60.471161
s UNKNOWN


rcpsp/heur_output_bi_constraints/Log=2/heurj60.txt
encoding rcpsp/j60.sm/j6014_8.sm nv: 1281312 nc: 2584658 enctime: 17.53
encoding rcpsp/j60.sm/j6014_8.sm nv: 311430 nc: 626800 enctime: 3.63
c File: j6014_8.smnaivebi2.wcnf
c timeout
c final solution cost: 59
c CPU time: 62.141562
s UNKNOWN

c File: j6014_8.smbi2.wcnf
c timeout
c final solution cost: 58
c CPU time: 60.473292
s UNKNOWN


rcpsp/heur_output_bi_constraints/Log=2/heurj60.txt
encoding rcpsp/j60.sm/j6014_9.sm nv: 1557051 nc: 3135929 enctime: 21.41
encoding rcpsp/j60.sm/j6014_9.sm nv: 327535 nc: 658109 enctime: 3.86
c File: j6014_9.smnaivebi2.wcnf
c timeout
c final solution cost: 52
c CPU time: 62.537752
s UNKNOWN

c File: j6014_9.smbi2.wcnf
c timeout
c final solution cost: 53
c CPU time: 60.480966
s UNKNOWN


rcpsp/heur_output_bi_constraints/Log=2/heurj60.txt
encoding rcpsp/j60.sm/j601_4.sm nv: 124150 nc: 312106 enctime: 3.14
encoding rcpsp/j60.sm/j601_4.sm nv: 46222 nc: 114838 enctime: 0.74
c File: j601_4.smnaivebi2.wcnf
c optimal
c final solution cost: 71
c CPU time: 1.020734
s OPTIMUM FOUND

c File: j601_4.smbi2.wcnf
c optimal
c final solution cost: 71
c CPU time: 0.193764
s OPTIMUM FOUND


rcpsp/heur_output_bi_constraints/Log=2/heurj60.txt
encoding rcpsp/j60.sm/j6015_10.sm nv: 2039275 nc: 4083531 enctime: 27.00
encoding rcpsp/j60.sm/j6015_10.sm nv: 379400 nc: 758146 enctime: 4.54
c File: j6015_10.smnaivebi2.wcnf
c optimal
c final solution cost: 55
c CPU time: 4.950805
s OPTIMUM FOUND

c File: j6015_10.smbi2.wcnf
c optimal
c final solution cost: 55
c CPU time: 0.912113
s OPTIMUM FOUND


rcpsp/heur_output_bi_constraints/Log=2/heurj60.txt
encoding rcpsp/j60.sm/j6015_1.sm nv: 2067620 nc: 4158096 enctime: 27.92
encoding rcpsp/j60.sm/j6015_1.sm nv: 413524 nc: 829804 enctime: 4.89
c File: j6015_1.smnaivebi2.wcnf
c optimal
c final solution cost: 55
c CPU time: 5.142047
s OPTIMUM FOUND

c File: j6015_1.smbi2.wcnf
c optimal
c final solution cost: 55
c CPU time: 2.346002
s OPTIMUM FOUND


rcpsp/heur_output_bi_constraints/Log=2/heurj60.txt
encoding rcpsp/j60.sm/j6015_2.sm nv: 1727200 nc: 3489353 enctime: 24.02
encoding rcpsp/j60.sm/j6015_2.sm nv: 391160 nc: 788343 enctime: 4.61
c File: j6015_2.smnaivebi2.wcnf
c timeout
c final solution cost: 60
c CPU time: 62.891228
s UNKNOWN

c File: j6015_2.smbi2.wcnf
c timeout
c final solution cost: 60
c CPU time: 60.586753
s UNKNOWN


rcpsp/heur_output_bi_constraints/Log=2/heurj60.txt
encoding rcpsp/j60.sm/j6015_3.sm nv: 2432304 nc: 4879020 enctime: 33.13
encoding rcpsp/j60.sm/j6015_3.sm nv: 462280 nc: 925399 enctime: 5.57
c File: j6015_3.smnaivebi2.wcnf
c timeout
c final solution cost: 39
c CPU time: 63.940108
s UNKNOWN

c File: j6015_3.smbi2.wcnf
c timeout
c final solution cost: 39
c CPU time: 60.656431
s UNKNOWN


rcpsp/heur_output_bi_constraints/Log=2/heurj60.txt
encoding rcpsp/j60.sm/j6015_4.sm nv: 2218194 nc: 4472247 enctime: 30.72
encoding rcpsp/j60.sm/j6015_4.sm nv: 492273 nc: 990432 enctime: 6.73
c File: j6015_4.smnaivebi2.wcnf
c optimal
c final solution cost: 68
c CPU time: 6.098253
s OPTIMUM FOUND

c File: j6015_4.smbi2.wcnf
c optimal
c final solution cost: 68
c CPU time: 1.222134
s OPTIMUM FOUND


rcpsp/heur_output_bi_constraints/Log=2/heurj60.txt
encoding rcpsp/j60.sm/j6015_5.sm nv: 2133460 nc: 4293005 enctime: 29.16
encoding rcpsp/j60.sm/j6015_5.sm nv: 454060 nc: 911795 enctime: 6.24
c File: j6015_5.smnaivebi2.wcnf
c optimal
c final solution cost: 55
c CPU time: 7.644784
s OPTIMUM FOUND

c File: j6015_5.smbi2.wcnf
c optimal
c final solution cost: 55
c CPU time: 1.965899
s OPTIMUM FOUND


rcpsp/heur_output_bi_constraints/Log=2/heurj60.txt
encoding rcpsp/j60.sm/j6015_6.sm nv: 1857708 nc: 3740489 enctime: 25.40
encoding rcpsp/j60.sm/j6015_6.sm nv: 444960 nc: 894165 enctime: 5.91
c File: j6015_6.smnaivebi2.wcnf
c optimal
c final solution cost: 59
c CPU time: 4.967812
s OPTIMUM FOUND

c File: j6015_6.smbi2.wcnf
c optimal
c final solution cost: 59
c CPU time: 1.200837
s OPTIMUM FOUND


rcpsp/heur_output_bi_constraints/Log=2/heurj60.txt
encoding rcpsp/j60.sm/j6015_7.sm nv: 2288234 nc: 4586237 enctime: 31.40
encoding rcpsp/j60.sm/j6015_7.sm nv: 411060 nc: 822025 enctime: 5.05
c File: j6015_7.smnaivebi2.wcnf
c timeout
c final solution cost: 45
c CPU time: 63.749829
s UNKNOWN

c File: j6015_7.smbi2.wcnf
c timeout
c final solution cost: 45
c CPU time: 60.584795
s UNKNOWN


rcpsp/heur_output_bi_constraints/Log=2/heurj60.txt
encoding rcpsp/j60.sm/j6015_8.sm nv: 2220508 nc: 4475804 enctime: 31.24
encoding rcpsp/j60.sm/j6015_8.sm nv: 410978 nc: 826359 enctime: 5.07
c File: j6015_8.smnaivebi2.wcnf
c timeout
c final solution cost: 50
c CPU time: 63.783263
s UNKNOWN

c File: j6015_8.smbi2.wcnf
c timeout
c final solution cost: 50
c CPU time: 60.602316
s UNKNOWN


rcpsp/heur_output_bi_constraints/Log=2/heurj60.txt
encoding rcpsp/j60.sm/j6015_9.sm nv: 3013429 nc: 6033511 enctime: 42.45
encoding rcpsp/j60.sm/j6015_9.sm nv: 477060 nc: 952798 enctime: 6.13
c File: j6015_9.smnaivebi2.wcnf
c optimal
c final solution cost: 50
c CPU time: 7.996790
s OPTIMUM FOUND

c File: j6015_9.smbi2.wcnf
c optimal
c final solution cost: 50
c CPU time: 1.192358
s OPTIMUM FOUND


rcpsp/heur_output_bi_constraints/Log=2/heurj60.txt
encoding rcpsp/j60.sm/j601_5.sm nv: 118656 nc: 292451 enctime: 2.87
encoding rcpsp/j60.sm/j601_5.sm nv: 28416 nc: 68496 enctime: 0.42
c File: j601_5.smnaivebi2.wcnf
c optimal
c final solution cost: 50
c CPU time: 1.572883
s OPTIMUM FOUND

c File: j601_5.smbi2.wcnf
c optimal
c final solution cost: 50
c CPU time: 0.413695
s OPTIMUM FOUND


rcpsp/heur_output_bi_constraints/Log=2/heurj60.txt
encoding rcpsp/j60.sm/j6016_10.sm nv: 2712843 nc: 5435334 enctime: 37.20
encoding rcpsp/j60.sm/j6016_10.sm nv: 433143 nc: 865734 enctime: 5.43
c File: j6016_10.smnaivebi2.wcnf
c optimal
c final solution cost: 48
c CPU time: 7.144715
s OPTIMUM FOUND

c File: j6016_10.smbi2.wcnf
c optimal
c final solution cost: 48
c CPU time: 1.173477
s OPTIMUM FOUND


rcpsp/heur_output_bi_constraints/Log=2/heurj60.txt
encoding rcpsp/j60.sm/j6016_1.sm nv: 3239832 nc: 6484371 enctime: 44.03
encoding rcpsp/j60.sm/j6016_1.sm nv: 469156 nc: 936759 enctime: 6.00
c File: j6016_1.smnaivebi2.wcnf
c optimal
c final solution cost: 45
c CPU time: 7.703971
s OPTIMUM FOUND

c File: j6016_1.smbi2.wcnf
c optimal
c final solution cost: 45
c CPU time: 1.400589
s OPTIMUM FOUND


rcpsp/heur_output_bi_constraints/Log=2/heurj60.txt
encoding rcpsp/j60.sm/j6016_2.sm nv: 3284064 nc: 6549749 enctime: 44.84
encoding rcpsp/j60.sm/j6016_2.sm nv: 635310 nc: 1265249 enctime: 8.95
c File: j6016_2.smnaivebi2.wcnf
c optimal
c final solution cost: 38
c CPU time: 7.006663
s OPTIMUM FOUND

c File: j6016_2.smbi2.wcnf
c optimal
c final solution cost: 38
c CPU time: 1.307552
s OPTIMUM FOUND


rcpsp/heur_output_bi_constraints/Log=2/heurj60.txt
encoding rcpsp/j60.sm/j6016_3.sm nv: 2856396 nc: 5692453 enctime: 37.80
encoding rcpsp/j60.sm/j6016_3.sm nv: 499176 nc: 993058 enctime: 6.10
c File: j6016_3.smnaivebi2.wcnf
c optimal
c final solution cost: 42
c CPU time: 6.102617
s OPTIMUM FOUND

c File: j6016_3.smbi2.wcnf
c optimal
c final solution cost: 42
c CPU time: 1.242914
s OPTIMUM FOUND


rcpsp/heur_output_bi_constraints/Log=2/heurj60.txt
encoding rcpsp/j60.sm/j6016_4.sm nv: 2570356 nc: 5133576 enctime: 34.78
encoding rcpsp/j60.sm/j6016_4.sm nv: 459872 nc: 916720 enctime: 5.65
c File: j6016_4.smnaivebi2.wcnf
c optimal
c final solution cost: 44
c CPU time: 6.685068
s OPTIMUM FOUND

c File: j6016_4.smbi2.wcnf
c optimal
c final solution cost: 44
c CPU time: 1.138531
s OPTIMUM FOUND


rcpsp/heur_output_bi_constraints/Log=2/heurj60.txt
encoding rcpsp/j60.sm/j6016_5.sm nv: 2998710 nc: 5981629 enctime: 40.48
encoding rcpsp/j60.sm/j6016_5.sm nv: 527046 nc: 1049453 enctime: 6.53
c File: j6016_5.smnaivebi2.wcnf
c optimal
c final solution cost: 54
c CPU time: 7.744650
s OPTIMUM FOUND

c File: j6016_5.smbi2.wcnf
c optimal
c final solution cost: 54
c CPU time: 1.406154
s OPTIMUM FOUND


rcpsp/heur_output_bi_constraints/Log=2/heurj60.txt
encoding rcpsp/j60.sm/j6016_6.sm nv: 2978536 nc: 5963478 enctime: 40.99
encoding rcpsp/j60.sm/j6016_6.sm nv: 559504 nc: 1118064 enctime: 6.79
c File: j6016_6.smnaivebi2.wcnf
c optimal
c final solution cost: 66
c CPU time: 7.269523
s OPTIMUM FOUND

c File: j6016_6.smbi2.wcnf
c optimal
c final solution cost: 66
c CPU time: 1.332803
s OPTIMUM FOUND


rcpsp/heur_output_bi_constraints/Log=2/heurj60.txt
encoding rcpsp/j60.sm/j6016_7.sm nv: 1893492 nc: 3795535 enctime: 25.56
encoding rcpsp/j60.sm/j6016_7.sm nv: 419364 nc: 839159 enctime: 4.95
c File: j6016_7.smnaivebi2.wcnf
c optimal
c final solution cost: 46
c CPU time: 62.331487
s OPTIMUM FOUND

c File: j6016_7.smbi2.wcnf
c optimal
c final solution cost: 46
c CPU time: 4.306652
s OPTIMUM FOUND


rcpsp/heur_output_bi_constraints/Log=2/heurj60.txt
encoding rcpsp/j60.sm/j6016_8.sm nv: 2924757 nc: 5848179 enctime: 39.55
encoding rcpsp/j60.sm/j6016_8.sm nv: 557505 nc: 1112847 enctime: 6.71
c File: j6016_8.smnaivebi2.wcnf
c optimal
c final solution cost: 42
c CPU time: 7.194408
s OPTIMUM FOUND

c File: j6016_8.smbi2.wcnf
c optimal
c final solution cost: 42
c CPU time: 1.412305
s OPTIMUM FOUND


rcpsp/heur_output_bi_constraints/Log=2/heurj60.txt
encoding rcpsp/j60.sm/j6016_9.sm nv: 2741508 nc: 5467670 enctime: 36.10
encoding rcpsp/j60.sm/j6016_9.sm nv: 519354 nc: 1034063 enctime: 6.14
c File: j6016_9.smnaivebi2.wcnf
c optimal
c final solution cost: 43
c CPU time: 5.609457
s OPTIMUM FOUND

c File: j6016_9.smbi2.wcnf
c optimal
c final solution cost: 43
c CPU time: 1.206835
s OPTIMUM FOUND


rcpsp/heur_output_bi_constraints/Log=2/heurj60.txt
encoding rcpsp/j60.sm/j601_6.sm nv: 107811 nc: 264800 enctime: 2.54
encoding rcpsp/j60.sm/j601_6.sm nv: 27588 nc: 66342 enctime: 0.40
c File: j601_6.smnaivebi2.wcnf
c optimal
c final solution cost: 63
c CPU time: 5.594234
s OPTIMUM FOUND

c File: j601_6.smbi2.wcnf
c optimal
c final solution cost: 63
c CPU time: 1.909445
s OPTIMUM FOUND


rcpsp/heur_output_bi_constraints/Log=2/heurj60.txt
encoding rcpsp/j60.sm/j6017_10.sm nv: 150745 nc: 393595 enctime: 4.36
encoding rcpsp/j60.sm/j6017_10.sm nv: 39648 nc: 101461 enctime: 0.65
c File: j6017_10.smnaivebi2.wcnf
c optimal
c final solution cost: 62
c CPU time: 1.693456
s OPTIMUM FOUND

c File: j6017_10.smbi2.wcnf
c optimal
c final solution cost: 62
c CPU time: 0.452865
s OPTIMUM FOUND


rcpsp/heur_output_bi_constraints/Log=2/heurj60.txt
encoding rcpsp/j60.sm/j6017_1.sm nv: 113982 nc: 292086 enctime: 3.15
encoding rcpsp/j60.sm/j6017_1.sm nv: 38841 nc: 98127 enctime: 0.64
c File: j6017_1.smnaivebi2.wcnf
c optimal
c final solution cost: 75
c CPU time: 10.300485
s OPTIMUM FOUND

c File: j6017_1.smbi2.wcnf
c optimal
c final solution cost: 75
c CPU time: 1.944172
s OPTIMUM FOUND


rcpsp/heur_output_bi_constraints/Log=2/heurj60.txt
encoding rcpsp/j60.sm/j6017_2.sm nv: 114138 nc: 289932 enctime: 3.07
encoding rcpsp/j60.sm/j6017_2.sm nv: 33570 nc: 83868 enctime: 0.54
c File: j6017_2.smnaivebi2.wcnf
c optimal
c final solution cost: 67
c CPU time: 0.825593
s OPTIMUM FOUND

c File: j6017_2.smbi2.wcnf
c optimal
c final solution cost: 67
c CPU time: 0.135721
s OPTIMUM FOUND


